unsat
(error "line 2548 column 17: model is not available")
(error "line 2549 column 17: model is not available")
(error "line 2550 column 18: model is not available")
(error "line 2551 column 19: model is not available")
(error "line 2552 column 19: model is not available")
(error "line 2553 column 19: model is not available")
(error "line 2554 column 19: model is not available")
(error "line 2555 column 19: model is not available")
(error "line 2556 column 19: model is not available")
(error "line 2557 column 19: model is not available")
(error "line 2558 column 19: model is not available")
(error "line 2559 column 19: model is not available")
(error "line 2560 column 19: model is not available")
(error "line 2561 column 18: model is not available")
(error "line 2562 column 19: model is not available")
(error "line 2563 column 19: model is not available")
(error "line 2564 column 19: model is not available")
(error "line 2565 column 19: model is not available")
(error "line 2566 column 19: model is not available")
(error "line 2567 column 19: model is not available")
(error "line 2568 column 19: model is not available")
(error "line 2569 column 19: model is not available")
(error "line 2570 column 19: model is not available")
(error "line 2571 column 19: model is not available")
(error "line 2572 column 18: model is not available")
(error "line 2573 column 19: model is not available")
(error "line 2574 column 19: model is not available")
(error "line 2575 column 19: model is not available")
(error "line 2576 column 19: model is not available")
(error "line 2577 column 19: model is not available")
(error "line 2578 column 19: model is not available")
(error "line 2579 column 19: model is not available")
(error "line 2580 column 19: model is not available")
(error "line 2581 column 19: model is not available")
(error "line 2582 column 19: model is not available")
(error "line 2583 column 18: model is not available")
(error "line 2584 column 19: model is not available")
(error "line 2585 column 19: model is not available")
(error "line 2586 column 19: model is not available")
(error "line 2587 column 19: model is not available")
(error "line 2588 column 19: model is not available")
(error "line 2589 column 19: model is not available")
(error "line 2590 column 19: model is not available")
(error "line 2591 column 19: model is not available")
(error "line 2592 column 19: model is not available")
(error "line 2593 column 19: model is not available")
(error "line 2594 column 18: model is not available")
(error "line 2595 column 19: model is not available")
(error "line 2596 column 19: model is not available")
(error "line 2597 column 19: model is not available")
(error "line 2598 column 19: model is not available")
(error "line 2599 column 19: model is not available")
(error "line 2600 column 19: model is not available")
(error "line 2601 column 19: model is not available")
(error "line 2602 column 19: model is not available")
(error "line 2603 column 19: model is not available")
(error "line 2604 column 19: model is not available")
(error "line 2605 column 18: model is not available")
(error "line 2606 column 19: model is not available")
(error "line 2607 column 19: model is not available")
(error "line 2608 column 19: model is not available")
(error "line 2609 column 19: model is not available")
(error "line 2610 column 19: model is not available")
(error "line 2611 column 19: model is not available")
(error "line 2612 column 19: model is not available")
(error "line 2613 column 19: model is not available")
(error "line 2614 column 19: model is not available")
(error "line 2615 column 19: model is not available")
(error "line 2616 column 18: model is not available")
(error "line 2617 column 19: model is not available")
(error "line 2618 column 19: model is not available")
(error "line 2619 column 19: model is not available")
(error "line 2620 column 19: model is not available")
(error "line 2621 column 19: model is not available")
(error "line 2622 column 19: model is not available")
(error "line 2623 column 19: model is not available")
(error "line 2624 column 19: model is not available")
(error "line 2625 column 19: model is not available")
(error "line 2626 column 19: model is not available")
(error "line 2627 column 18: model is not available")
(error "line 2628 column 19: model is not available")
(error "line 2629 column 19: model is not available")
(error "line 2630 column 19: model is not available")
(error "line 2631 column 19: model is not available")
(error "line 2632 column 19: model is not available")
(error "line 2633 column 19: model is not available")
(error "line 2634 column 19: model is not available")
(error "line 2635 column 19: model is not available")
(error "line 2636 column 19: model is not available")
(error "line 2637 column 19: model is not available")
(error "line 2638 column 18: model is not available")
(error "line 2639 column 19: model is not available")
(error "line 2640 column 19: model is not available")
(error "line 2641 column 19: model is not available")
(error "line 2642 column 19: model is not available")
(error "line 2643 column 19: model is not available")
(error "line 2644 column 19: model is not available")
(error "line 2645 column 19: model is not available")
(error "line 2646 column 19: model is not available")
(error "line 2647 column 19: model is not available")
(error "line 2648 column 19: model is not available")
(error "line 2649 column 18: model is not available")
(error "line 2650 column 19: model is not available")
(error "line 2651 column 19: model is not available")
(error "line 2652 column 17: model is not available")
(error "line 2653 column 18: model is not available")
(error "line 2654 column 18: model is not available")
(error "line 2655 column 18: model is not available")
(error "line 2656 column 18: model is not available")
(error "line 2657 column 18: model is not available")
(error "line 2658 column 18: model is not available")
(error "line 2659 column 18: model is not available")
(error "line 2660 column 18: model is not available")
(error "line 2661 column 18: model is not available")
(error "line 2662 column 18: model is not available")
(error "line 2663 column 17: model is not available")
(error "line 2664 column 18: model is not available")
(error "line 2665 column 18: model is not available")
(error "line 2666 column 18: model is not available")
(error "line 2667 column 18: model is not available")
(error "line 2668 column 18: model is not available")
(error "line 2669 column 18: model is not available")
(error "line 2670 column 18: model is not available")
(error "line 2671 column 18: model is not available")
(error "line 2672 column 18: model is not available")
(error "line 2673 column 18: model is not available")
(error "line 2674 column 17: model is not available")
(error "line 2675 column 18: model is not available")
(error "line 2676 column 18: model is not available")
(error "line 2677 column 18: model is not available")
(error "line 2678 column 18: model is not available")
(error "line 2679 column 18: model is not available")
(error "line 2680 column 18: model is not available")
(error "line 2681 column 18: model is not available")
(error "line 2682 column 18: model is not available")
(error "line 2683 column 18: model is not available")
(error "line 2684 column 18: model is not available")
(error "line 2685 column 17: model is not available")
(error "line 2686 column 18: model is not available")
(error "line 2687 column 18: model is not available")
(error "line 2688 column 18: model is not available")
(error "line 2689 column 18: model is not available")
(error "line 2690 column 18: model is not available")
(error "line 2691 column 18: model is not available")
(error "line 2692 column 18: model is not available")
(error "line 2693 column 18: model is not available")
(error "line 2694 column 18: model is not available")
(error "line 2695 column 18: model is not available")
(error "line 2696 column 17: model is not available")
(error "line 2697 column 18: model is not available")
(error "line 2698 column 18: model is not available")
(error "line 2699 column 18: model is not available")
(error "line 2700 column 18: model is not available")
(error "line 2701 column 18: model is not available")
(error "line 2702 column 18: model is not available")
(error "line 2703 column 18: model is not available")
(error "line 2704 column 18: model is not available")
(error "line 2705 column 18: model is not available")
(error "line 2706 column 18: model is not available")
(error "line 2707 column 17: model is not available")
(error "line 2708 column 18: model is not available")
(error "line 2709 column 18: model is not available")
(error "line 2710 column 18: model is not available")
(error "line 2711 column 18: model is not available")
(error "line 2712 column 18: model is not available")
(error "line 2713 column 18: model is not available")
(error "line 2714 column 18: model is not available")
(error "line 2715 column 18: model is not available")
(error "line 2716 column 18: model is not available")
(error "line 2717 column 18: model is not available")
(error "line 2718 column 17: model is not available")
(error "line 2719 column 18: model is not available")
(error "line 2720 column 18: model is not available")
(error "line 2721 column 18: model is not available")
(error "line 2722 column 18: model is not available")
(error "line 2723 column 18: model is not available")
(error "line 2724 column 18: model is not available")
(error "line 2725 column 18: model is not available")
(error "line 2726 column 18: model is not available")
(error "line 2727 column 18: model is not available")
(error "line 2728 column 18: model is not available")
(error "line 2729 column 17: model is not available")
(error "line 2730 column 18: model is not available")
(error "line 2731 column 18: model is not available")
(error "line 2732 column 18: model is not available")
(error "line 2733 column 18: model is not available")
(error "line 2734 column 18: model is not available")
(error "line 2735 column 18: model is not available")
(error "line 2736 column 18: model is not available")
(error "line 2737 column 18: model is not available")
(error "line 2738 column 18: model is not available")
(error "line 2739 column 18: model is not available")
(error "line 2740 column 38: model is not available")
(error "line 2741 column 45: model is not available")
(error "line 2742 column 38: model is not available")
(error "line 2743 column 45: model is not available")
(error "line 2744 column 46: model is not available")
(error "line 2745 column 53: model is not available")
(error "line 2746 column 40: model is not available")
(error "line 2747 column 47: model is not available")
(error "line 2748 column 38: model is not available")
(error "line 2749 column 45: model is not available")
(error "line 2750 column 38: model is not available")
(error "line 2751 column 45: model is not available")
(error "line 2752 column 41: model is not available")
(error "line 2753 column 48: model is not available")
(error "line 2754 column 42: model is not available")
(error "line 2755 column 49: model is not available")
(error "line 2756 column 42: model is not available")
(error "line 2757 column 49: model is not available")
(error "line 2758 column 42: model is not available")
(error "line 2759 column 42: model is not available")
(error "line 2760 column 49: model is not available")
(error "line 2761 column 41: model is not available")
(error "line 2762 column 48: model is not available")
(error "line 2763 column 41: model is not available")
(error "line 2764 column 48: model is not available")
(error "line 2765 column 41: model is not available")
(error "line 2766 column 41: model is not available")
(error "line 2767 column 41: model is not available")
(error "line 2768 column 41: model is not available")
(error "line 2769 column 48: model is not available")
(error "line 2770 column 41: model is not available")
(error "line 2771 column 48: model is not available")
(error "line 2772 column 41: model is not available")
(error "line 2773 column 37: model is not available")
(error "line 2774 column 44: model is not available")
(error "line 2775 column 42: model is not available")
(error "line 2776 column 42: model is not available")
(error "line 2777 column 42: model is not available")
(error "line 2778 column 42: model is not available")
(error "line 2779 column 42: model is not available")
(error "line 2780 column 38: model is not available")
(error "line 2781 column 38: model is not available")
(error "line 2782 column 38: model is not available")
(error "line 2783 column 38: model is not available")
(error "line 2784 column 38: model is not available")
(error "line 2785 column 38: model is not available")
(error "line 2786 column 38: model is not available")
(error "line 2787 column 38: model is not available")
(error "line 2788 column 38: model is not available")
(error "line 2789 column 41: model is not available")
(error "line 2790 column 48: model is not available")
(error "line 2791 column 41: model is not available")
(error "line 2792 column 48: model is not available")
(error "line 2793 column 41: model is not available")
(error "line 2794 column 48: model is not available")
(error "line 2795 column 41: model is not available")
(error "line 2796 column 48: model is not available")
(error "line 2797 column 41: model is not available")
(error "line 2798 column 48: model is not available")
(error "line 2799 column 41: model is not available")
(error "line 2800 column 48: model is not available")
(error "line 2801 column 41: model is not available")
(error "line 2802 column 48: model is not available")
(error "line 2803 column 41: model is not available")
(error "line 2804 column 48: model is not available")
(error "line 2805 column 41: model is not available")
(error "line 2806 column 48: model is not available")
(error "line 2807 column 44: model is not available")
(error "line 2808 column 53: model is not available")
(error "line 2809 column 53: model is not available")
(error "line 2810 column 53: model is not available")
(error "line 2811 column 53: model is not available")
(error "line 2812 column 22: model is not available")
(error "line 2813 column 20: model is not available")
(error "line 2814 column 22: model is not available")
(error "line 2815 column 22: model is not available")
(error "line 2816 column 29: model is not available")
(error "line 2817 column 38: model is not available")
(error "line 2818 column 38: model is not available")
(error "line 2819 column 38: model is not available")
(error "line 2820 column 38: model is not available")
(error "line 2821 column 36: model is not available")
(error "line 2822 column 36: model is not available")
(error "line 2823 column 36: model is not available")
(error "line 2824 column 36: model is not available")
(error "line 2825 column 36: model is not available")
(error "line 2826 column 31: model is not available")
(error "line 2827 column 31: model is not available")
(error "line 2828 column 31: model is not available")
(error "line 2829 column 31: model is not available")
(error "line 2830 column 31: model is not available")
(error "line 2831 column 31: model is not available")
(error "line 2832 column 31: model is not available")
(error "line 2833 column 31: model is not available")
(error "line 2834 column 30: model is not available")
(error "line 2835 column 32: model is not available")
(error "line 2836 column 39: model is not available")
(error "line 2837 column 32: model is not available")
(error "line 2838 column 39: model is not available")
(error "line 2839 column 30: model is not available")
(error "line 2840 column 32: model is not available")
(error "line 2841 column 39: model is not available")
(error "line 2842 column 32: model is not available")
(error "line 2843 column 39: model is not available")
(error "line 2844 column 32: model is not available")
(error "line 2845 column 39: model is not available")
(error "line 2846 column 32: model is not available")
(error "line 2847 column 39: model is not available")
(error "line 2848 column 31: model is not available")
(error "line 2849 column 31: model is not available")
(error "line 2850 column 53: model is not available")
(error "line 2851 column 52: model is not available")
(error "line 2852 column 53: model is not available")
(error "line 2853 column 52: model is not available")
(error "line 2854 column 53: model is not available")
(error "line 2855 column 52: model is not available")
(error "line 2856 column 53: model is not available")
(error "line 2857 column 53: model is not available")
(error "line 2858 column 52: model is not available")
(error "line 2859 column 53: model is not available")
(error "line 2860 column 52: model is not available")
(error "line 2861 column 53: model is not available")
(error "line 2862 column 53: model is not available")
(error "line 2863 column 53: model is not available")
(error "line 2864 column 52: model is not available")
(error "line 2865 column 52: model is not available")
(error "line 2866 column 52: model is not available")
(error "line 2867 column 51: model is not available")
(error "line 2868 column 51: model is not available")
(error "line 2869 column 51: model is not available")
(error "line 2870 column 52: model is not available")
(error "line 2871 column 51: model is not available")
(error "line 2872 column 52: model is not available")
(error "line 2873 column 52: model is not available")
(error "line 2874 column 51: model is not available")
(error "line 2875 column 51: model is not available")
(error "line 2876 column 51: model is not available")
(error "line 2877 column 52: model is not available")
(error "line 2878 column 51: model is not available")
(error "line 2879 column 50: model is not available")
(error "line 2880 column 50: model is not available")
(error "line 2881 column 50: model is not available")
(error "line 2882 column 50: model is not available")
(error "line 2883 column 52: model is not available")
(error "line 2884 column 52: model is not available")
(error "line 2885 column 51: model is not available")
(error "line 2886 column 51: model is not available")
(error "line 2887 column 50: model is not available")
(error "line 2888 column 50: model is not available")
(error "line 2889 column 50: model is not available")
(error "line 2890 column 50: model is not available")
(error "line 2891 column 52: model is not available")
(error "line 2892 column 52: model is not available")
(error "line 2893 column 51: model is not available")
(error "line 2894 column 51: model is not available")
(error "line 2895 column 50: model is not available")
(error "line 2896 column 50: model is not available")
(error "line 2897 column 51: model is not available")
(error "line 2898 column 51: model is not available")
(error "line 2899 column 52: model is not available")
(error "line 2900 column 52: model is not available")
(error "line 2901 column 51: model is not available")
(error "line 2902 column 51: model is not available")
(error "line 2903 column 51: model is not available")
(error "line 2904 column 51: model is not available")
(error "line 2905 column 51: model is not available")
(error "line 2906 column 51: model is not available")
(error "line 2907 column 56: model is not available")
(error "line 2908 column 56: model is not available")
(error "line 2909 column 56: model is not available")
(error "line 2910 column 56: model is not available")
(error "line 2911 column 56: model is not available")
(error "line 2912 column 56: model is not available")
(error "line 2913 column 55: model is not available")
(error "line 2914 column 55: model is not available")
(error "line 2915 column 55: model is not available")
(error "line 2916 column 55: model is not available")
(error "line 2917 column 55: model is not available")
(error "line 2918 column 55: model is not available")
(error "line 2919 column 55: model is not available")
(error "line 2920 column 55: model is not available")
(error "line 2921 column 55: model is not available")
(error "line 2922 column 55: model is not available")
(error "line 2923 column 55: model is not available")
(error "line 2924 column 55: model is not available")
(error "line 2925 column 55: model is not available")
(error "line 2926 column 18: model is not available")
(error "line 2927 column 25: model is not available")
(error "line 2928 column 18: model is not available")
(error "line 2929 column 25: model is not available")
(error "line 2930 column 18: model is not available")
(error "line 2931 column 25: model is not available")
(error "line 2932 column 18: model is not available")
(error "line 2933 column 25: model is not available")
(error "line 2934 column 18: model is not available")
(error "line 2935 column 25: model is not available")
(error "line 2936 column 18: model is not available")
(error "line 2937 column 25: model is not available")
(error "line 2938 column 18: model is not available")
(error "line 2939 column 25: model is not available")
(error "line 2940 column 36: model is not available")
(error "line 2941 column 46: model is not available")
(error "line 2942 column 46: model is not available")
(error "line 2943 column 46: model is not available")
(error "line 2944 column 46: model is not available")
(error "line 2945 column 46: model is not available")
(error "line 2946 column 46: model is not available")
(error "line 2947 column 46: model is not available")
(error "line 2948 column 46: model is not available")
(error "line 2949 column 46: model is not available")
(error "line 2950 column 46: model is not available")
(error "line 2951 column 46: model is not available")
(error "line 2952 column 54: model is not available")
(error "line 2953 column 54: model is not available")
(error "line 2954 column 54: model is not available")
(error "line 2955 column 54: model is not available")
(error "line 2956 column 54: model is not available")
(error "line 2957 column 54: model is not available")
(error "line 2958 column 54: model is not available")
(error "line 2959 column 54: model is not available")
(error "line 2960 column 54: model is not available")
(error "line 2961 column 54: model is not available")
(error "line 2962 column 54: model is not available")
(error "line 2963 column 54: model is not available")
(error "line 2964 column 40: model is not available")
(error "line 2965 column 40: model is not available")
(error "line 2966 column 40: model is not available")
(error "line 2967 column 40: model is not available")
(error "line 2968 column 40: model is not available")
(error "line 2969 column 40: model is not available")
(error "line 2970 column 40: model is not available")
(error "line 2971 column 40: model is not available")
(error "line 2972 column 41: model is not available")
(error "line 2973 column 41: model is not available")
(error "line 2974 column 41: model is not available")
(error "line 2975 column 41: model is not available")
(error "line 2976 column 41: model is not available")
(error "line 2977 column 41: model is not available")
(error "line 2978 column 41: model is not available")
(error "line 2979 column 41: model is not available")
(error "line 2980 column 50: model is not available")
(error "line 2981 column 50: model is not available")
(error "line 2982 column 50: model is not available")
(error "line 2983 column 50: model is not available")
(error "line 2984 column 50: model is not available")
(error "line 2985 column 50: model is not available")
(error "line 2986 column 50: model is not available")
(error "line 2987 column 50: model is not available")
(error "line 2988 column 43: model is not available")
(error "line 2989 column 43: model is not available")
(error "line 2990 column 43: model is not available")
(error "line 2991 column 43: model is not available")
(error "line 2992 column 43: model is not available")
(error "line 2993 column 43: model is not available")
(error "line 2994 column 43: model is not available")
(error "line 2995 column 43: model is not available")
(error "line 2996 column 26: model is not available")
(error "line 2997 column 27: model is not available")
(error "line 2998 column 30: model is not available")
(error "line 2999 column 30: model is not available")
(error "line 3000 column 30: model is not available")
(error "line 3001 column 30: model is not available")
(error "line 3002 column 36: model is not available")
(error "line 3003 column 36: model is not available")
(error "line 3004 column 36: model is not available")
(error "line 3005 column 36: model is not available")
(error "line 3006 column 36: model is not available")
(error "line 3007 column 30: model is not available")
(error "line 3008 column 36: model is not available")
(error "line 3009 column 36: model is not available")
(error "line 3010 column 36: model is not available")
(error "line 3011 column 36: model is not available")
(error "line 3012 column 36: model is not available")
(error "line 3013 column 36: model is not available")
(error "line 3014 column 36: model is not available")
(error "line 3015 column 31: model is not available")
(error "line 3016 column 31: model is not available")
(error "line 3017 column 31: model is not available")
(error "line 3018 column 31: model is not available")
(error "line 3019 column 31: model is not available")
(error "line 3020 column 31: model is not available")
(error "line 3021 column 30: model is not available")
(error "line 3022 column 30: model is not available")
(error "line 3023 column 30: model is not available")
(error "line 3024 column 18: model is not available")
(error "line 3025 column 25: model is not available")
(error "line 3026 column 19: model is not available")
(error "line 3027 column 26: model is not available")
(error "line 3028 column 18: model is not available")
(error "line 3029 column 25: model is not available")
(error "line 3030 column 18: model is not available")
(error "line 3031 column 25: model is not available")
(error "line 3032 column 18: model is not available")
(error "line 3033 column 25: model is not available")
(error "line 3034 column 18: model is not available")
(error "line 3035 column 25: model is not available")
(error "line 3036 column 18: model is not available")
(error "line 3037 column 25: model is not available")
(error "line 3038 column 18: model is not available")
(error "line 3039 column 25: model is not available")
(error "line 3040 column 18: model is not available")
(error "line 3041 column 25: model is not available")
(error "line 3042 column 18: model is not available")
(error "line 3043 column 25: model is not available")
(error "line 3045 column 10: model is not available")
(:added-eqs                      2105
 :arith-bound-propagations-cheap 403
 :arith-bound-propagations-lp    126
 :arith-lower                    288
 :arith-make-feasible            147
 :arith-max-columns              166
 :arith-max-rows                 121
 :arith-propagations             403
 :arith-upper                    316
 :array-ax1                      3
 :binary-propagations            8254
 :bv-bit2core                    11104
 :bv-diseqs                      5
 :bv-dynamic-diseqs              17
 :bv->core-eq                    435
 :conflicts                      135
 :decisions                      280
 :del-clause                     2057
 :eliminated-applications        20
 :eliminated-vars                12
 :max-memory                     4.94
 :memory                         3.32
 :minimized-lits                 1300
 :mk-bool-var                    2141
 :mk-clause                      2613
 :num-allocs                     2164535
 :num-checks                     1
 :propagations                   16434
 :restarts                       1
 :rlimit-count                   128686
 :time                           0.03
 :total-time                     0.03)

real	0m0.038s
user	0m0.032s
sys	0m0.006s
State: RE Run_time: 0.040819406509399414